NAME: test1358
TYPE: TSP
DIMENSION: 11
EDGE_WEIGHT_TYPE: EUC_2D
NODE_COORD_SECTION
1 38.34248800846499 27.962841688060912
2 37.874144502972264 43.1586627944925
3 78.75061619233007 99.37991918168873
4 98.19588576010112 91.54933394125163
5 64.00315082223558 1.0169401626058505
6 7.898235178079894 51.242205510509706
7 27.467558691600235 72.72943152474392
8 78.17058370705922 5.4215918734309305
9 3.9704054217381213 36.09817669174548
10 68.3170121195518 58.29539843920295
11 18.58490570974045 88.88515896103189
EOF
